10J3M/DAT/10J3MUTR-9.dat
10 3
42.4845 42.2032
23.4198 35.8401
5.9073 6.3802
45.3349 0.0481
28.2011 32.4751
1.5448 42.8326
36.8927 25.2772
3.549 27.6206
42.5808 15.5806
6.7757 40.7237
67.2454