10J3M/SOL/10J3MUTR-9.sol
solution status: optimal solution found
objective value:                     74.9261214833633
x#1#2                                               1 	(obj:0)
x#2#1                               0.342716108134944 	(obj:0)
x#2#2                               0.279268113151985 	(obj:0)
x#2#3                               0.378015778713073 	(obj:0)
x#3#3                               0.157147771779399 	(obj:0)
x#4#1                              0.0423159773511908 	(obj:0)
x#4#2                              0.0876359644037304 	(obj:0)
x#4#3                               0.870048058245079 	(obj:0)
x#5#2                                               1 	(obj:0)
x#6#3                                               1 	(obj:0)
x#7#1                                               1 	(obj:0)
x#10#1                                              1 	(obj:0)
z                                    74.9261214833633 	(obj:1)
